Porous Carbon Ribbon with S1-S6 Sites and Adsorbate
1.0
     24.00000000   0.00000000   0.00000000
   0.00000000      14.00000000   0.00000000
   0.00000000   0.00000000      20.00000000
 C   H
 58  19
Cartesian
      2.50000000      7.00000000     10.00000000
      3.70000000      7.70000000     10.00000000
      4.90000000      7.00000000     10.00000000
      4.90000000      5.60000000     10.00000000
      3.70000000      4.90000000     10.00000000
      2.50000000      5.60000000     10.00000000
      3.70000000      9.10000000     10.00000000
      4.90000000      9.80000000     10.00000000
      6.10000000      9.10000000     10.00000000
      6.10000000      7.70000000     10.00000000
      3.70000000      3.50000000     10.00000000
      4.90000000      2.80000000     10.00000000
      6.10000000      3.50000000     10.00000000
      6.10000000      4.90000000     10.00000000
      7.30000000      9.80000000     10.00000000
      8.50000000      9.10000000     10.00000000
      8.50000000      7.70000000     10.00000000
      7.30000000      7.00000000     10.00000000
      7.30000000      2.80000000     10.00000000
      8.50000000      3.50000000     10.00000000
      8.50000000      4.90000000     10.00000000
      7.30000000      5.60000000     10.00000000
      9.70000000      9.10000000     10.00000000
     10.90000000      9.10000000     10.00000000
     10.90000000      7.70000000     10.00000000
      9.70000000      7.70000000     10.00000000
      9.70000000      4.90000000     10.00000000
     10.90000000      4.90000000     10.00000000
     10.90000000      3.50000000     10.00000000
      9.70000000      3.50000000     10.35000000
     10.90000000      6.40000000     10.00000000
      9.70000000      6.40000000     10.00000000
     12.10000000      9.80000000     10.00000000
     13.30000000      9.10000000     10.00000000
     13.30000000      7.70000000     10.00000000
     12.10000000      7.00000000     10.00000000
     12.10000000      2.80000000     10.00000000
     13.30000000      3.50000000     10.00000000
     13.30000000      4.90000000     10.00000000
     12.10000000      5.60000000     10.00000000
     14.50000000      9.10000000     10.00000000
     15.70000000      9.80000000     10.00000000
     16.90000000      9.10000000     10.00000000
     16.90000000      7.70000000     10.00000000
     15.70000000      7.00000000     10.00000000
     14.50000000      7.70000000     10.00000000
     14.50000000      3.50000000     10.00000000
     15.70000000      2.80000000     10.00000000
     16.90000000      3.50000000     10.00000000
     16.90000000      4.90000000     10.00000000
     15.70000000      5.60000000     10.00000000
     14.50000000      4.90000000     10.00000000
     18.10000000      7.00000000     10.00000000
     19.30000000      7.70000000     10.00000000
     20.50000000      7.00000000     10.00000000
     20.50000000      5.60000000     10.00000000
     19.30000000      4.90000000     10.00000000
     18.10000000      5.60000000     10.00000000
      9.70000000      3.50000000     11.45000000
      1.55848100      7.54921942     10.00000000
      1.55848100      5.05078058     10.00000000
      2.75848100      9.64921942     10.00000000
      4.90000000     10.89000000     10.00000000
      2.75848100      2.95078058     10.00000000
      4.90000000      1.71000000     10.00000000
      7.30000000     10.89000000     10.00000000
      7.30000000      1.71000000     10.00000000
     12.10000000     10.89000000     10.00000000
     12.10000000      1.71000000     10.00000000
     15.70000000     10.89000000     10.00000000
     17.84151900      9.64921942     10.00000000
     15.70000000      1.71000000     10.00000000
     17.84151900      2.95078058     10.00000000
     19.30000000      8.79000000     10.00000000
     21.44151900      7.54921942     10.00000000
     21.44151900      5.05078058     10.00000000
     19.30000000      3.81000000     10.00000000
